c This is an instance of the exact track of PACE 2020 Challenge, see https://pacechallenge.org/2020/ 
c TYPE: infrastracture 
c ORIGIN: Open street maps 
c DESCRIPTION: Miesiączkowo (Poland): a road network downloaded from open street maps using osmnx Python package 
p tdp 98 109
1 41
1 27
1 73
2 14
2 16
2 80
3 80
4 97
4 20
4 28
5 90
5 31
5 9
6 79
7 34
7 16
7 26
8 18
8 32
10 12
10 79
10 26
11 14
12 86
12 13
14 24
15 16
17 20
19 22
19 20
19 88
21 22
22 96
23 24
25 90
26 91
27 42
27 67
27 84
28 29
28 39
29 97
29 39
30 42
30 39
30 33
31 73
31 72
32 35
32 85
34 64
34 97
36 51
36 72
36 54
37 82
37 45
37 40
38 43
38 65
38 71
40 86
40 43
41 93
41 85
42 90
43 86
44 95
44 51
44 46
45 74
45 81
47 48
48 49
48 95
50 56
50 95
50 52
51 55
52 87
52 53
57 87
58 87
58 61
58 59
60 62
61 64
61 62
62 63
64 69
66 67
68 69
69 70
72 93
73 93
74 75
74 92
75 96
75 91
76 89
77 78
78 92
79 80
82 83
84 88
84 89
85 98
91 94
92 96
